# Solution for model 2026-01-22_13-09-31
# Objective value = 4.0000000004010008e+02
start_0 54
start_1 48
start_2 24
start_3 30
start_4 6
start_5 12
start_6 0
start_7 18
hold_0_1 0
hold_0_2 0
hold_0_3 0
hold_0_4 0
hold_0_5 0
hold_0_6 1
hold_0_7 0
hold_0_8 0
hold_0_9 0
hold_0_10 0
hold_0_11 0
hold_0_12 0
hold_0_13 0
hold_0_14 0
hold_0_15 0
hold_0_16 0
hold_0_17 0
hold_0_18 0
hold_1_1 1.8522344927857851e-11
hold_1_2 0
hold_1_3 0
hold_1_4 0
hold_1_5 0
hold_1_6 1
hold_1_7 0
hold_1_8 0
hold_1_9 0
hold_1_10 0
hold_1_11 0
hold_1_12 0
hold_1_13 0
hold_1_14 0
hold_1_15 0
hold_1_16 0
hold_1_17 0
hold_1_18 0
hold_2_1 1.8522257590313245e-11
hold_2_2 0
hold_2_3 0
hold_2_4 0
hold_2_5 0
hold_2_6 1
hold_2_7 0
hold_2_8 0
hold_2_9 0
hold_2_10 0
hold_2_11 0
hold_2_12 0
hold_2_13 0
hold_2_14 0
hold_2_15 0
hold_2_16 0
hold_2_17 0
hold_2_18 0
hold_3_1 0
hold_3_2 0
hold_3_3 0
hold_3_4 0
hold_3_5 0
hold_3_6 0
hold_3_7 0
hold_3_8 0
hold_3_9 0
hold_3_10 0
hold_3_11 0
hold_3_12 0
hold_3_13 0
hold_3_14 0
hold_3_15 0
hold_3_16 0
hold_3_17 0
hold_3_18 1
hold_4_1 0
hold_4_2 0
hold_4_3 0
hold_4_4 0
hold_4_5 0
hold_4_6 1
hold_4_7 0
hold_4_8 0
hold_4_9 0
hold_4_10 0
hold_4_11 0
hold_4_12 0
hold_4_13 0
hold_4_14 0
hold_4_15 0
hold_4_16 0
hold_4_17 0
hold_4_18 0
hold_5_1 0
hold_5_2 0
hold_5_3 0
hold_5_4 0
hold_5_5 0
hold_5_6 1
hold_5_7 0
hold_5_8 0
hold_5_9 0
hold_5_10 0
hold_5_11 0
hold_5_12 0
hold_5_13 0
hold_5_14 0
hold_5_15 0
hold_5_16 0
hold_5_17 0
hold_5_18 0
hold_6_1 0
hold_6_2 0
hold_6_3 0
hold_6_4 0
hold_6_5 0
hold_6_6 1
hold_6_7 0
hold_6_8 0
hold_6_9 0
hold_6_10 0
hold_6_11 0
hold_6_12 0
hold_6_13 0
hold_6_14 0
hold_6_15 0
hold_6_16 0
hold_6_17 0
hold_6_18 0
hold_7_1 0
hold_7_2 0
hold_7_3 0
hold_7_4 0
hold_7_5 0
hold_7_6 1
hold_7_7 0
hold_7_8 0
hold_7_9 0
hold_7_10 0
hold_7_11 0
hold_7_12 0
hold_7_13 0
hold_7_14 0
hold_7_15 0
hold_7_16 0
hold_7_17 0
hold_7_18 0
flow_source_nic_in_0 0
flow_nic_out_0_sink 4.0000000004010008e+02
flow_nic_out_0_nic_in_1 0
flow_nic_out_0_nic_in_2 0
flow_nic_out_0_nic_in_3 0
flow_nic_out_0_nic_in_4 0
flow_nic_out_0_nic_in_5 0
flow_nic_out_0_nic_in_6 0
flow_nic_out_0_nic_in_7 0
flow_nic_in_0_0 4.0000000004010008e+02
flow_0_nic_out_0 4.0000000004010008e+02
flow_source_nic_in_1 0
flow_nic_out_1_sink 0
flow_nic_out_1_nic_in_0 4.0000000004010008e+02
flow_nic_out_1_nic_in_2 0
flow_nic_out_1_nic_in_3 0
flow_nic_out_1_nic_in_4 0
flow_nic_out_1_nic_in_5 0
flow_nic_out_1_nic_in_6 0
flow_nic_out_1_nic_in_7 0
flow_nic_in_1_1 4.0000000004010008e+02
flow_1_nic_out_1 4.0000000004010008e+02
flow_source_nic_in_2 0
flow_nic_out_2_sink 0
flow_nic_out_2_nic_in_0 0
flow_nic_out_2_nic_in_1 0
flow_nic_out_2_nic_in_3 4.0000000004010008e+02
flow_nic_out_2_nic_in_4 0
flow_nic_out_2_nic_in_5 0
flow_nic_out_2_nic_in_6 0
flow_nic_out_2_nic_in_7 0
flow_nic_in_2_2 4.0000000004010008e+02
flow_2_nic_out_2 4.0000000004010008e+02
flow_source_nic_in_3 0
flow_nic_out_3_sink 0
flow_nic_out_3_nic_in_0 0
flow_nic_out_3_nic_in_1 4.0000000004010008e+02
flow_nic_out_3_nic_in_2 0
flow_nic_out_3_nic_in_4 0
flow_nic_out_3_nic_in_5 0
flow_nic_out_3_nic_in_6 0
flow_nic_out_3_nic_in_7 0
flow_nic_in_3_3 4.0000000004010008e+02
flow_3_nic_out_3 4.0000000004010008e+02
flow_source_nic_in_4 0
flow_nic_out_4_sink 0
flow_nic_out_4_nic_in_0 0
flow_nic_out_4_nic_in_1 0
flow_nic_out_4_nic_in_2 0
flow_nic_out_4_nic_in_3 0
flow_nic_out_4_nic_in_5 4.0000000004010008e+02
flow_nic_out_4_nic_in_6 0
flow_nic_out_4_nic_in_7 0
flow_nic_in_4_4 4.0000000004010008e+02
flow_4_nic_out_4 4.0000000004010008e+02
flow_source_nic_in_5 0
flow_nic_out_5_sink 0
flow_nic_out_5_nic_in_0 0
flow_nic_out_5_nic_in_1 0
flow_nic_out_5_nic_in_2 0
flow_nic_out_5_nic_in_3 0
flow_nic_out_5_nic_in_4 0
flow_nic_out_5_nic_in_6 0
flow_nic_out_5_nic_in_7 4.0000000004010008e+02
flow_nic_in_5_5 4.0000000004010008e+02
flow_5_nic_out_5 4.0000000004010008e+02
flow_source_nic_in_6 4.0000000004010008e+02
flow_nic_out_6_sink 0
flow_nic_out_6_nic_in_0 0
flow_nic_out_6_nic_in_1 0
flow_nic_out_6_nic_in_2 0
flow_nic_out_6_nic_in_3 0
flow_nic_out_6_nic_in_4 4.0000000004010008e+02
flow_nic_out_6_nic_in_5 0
flow_nic_out_6_nic_in_7 0
flow_nic_in_6_6 4.0000000004010008e+02
flow_6_nic_out_6 4.0000000004010008e+02
flow_source_nic_in_7 0
flow_nic_out_7_sink 0
flow_nic_out_7_nic_in_0 0
flow_nic_out_7_nic_in_1 0
flow_nic_out_7_nic_in_2 4.0000000004010008e+02
flow_nic_out_7_nic_in_3 0
flow_nic_out_7_nic_in_4 0
flow_nic_out_7_nic_in_5 0
flow_nic_out_7_nic_in_6 0
flow_nic_in_7_7 4.0000000004010008e+02
flow_7_nic_out_7 4.0000000004010008e+02
switch_source_nic_in_0 0
switch_nic_out_0_sink 1
switch_nic_out_0_nic_in_1 0
switch_nic_out_0_nic_in_2 0
switch_nic_out_0_nic_in_3 0
switch_nic_out_0_nic_in_4 0
switch_nic_out_0_nic_in_5 0
switch_nic_out_0_nic_in_6 0
switch_nic_out_0_nic_in_7 0
switch_nic_in_0_0 1
switch_0_nic_out_0 1
switch_source_nic_in_1 0
switch_nic_out_1_sink 0
switch_nic_out_1_nic_in_0 1
switch_nic_out_1_nic_in_2 0
switch_nic_out_1_nic_in_3 0
switch_nic_out_1_nic_in_4 0
switch_nic_out_1_nic_in_5 0
switch_nic_out_1_nic_in_6 0
switch_nic_out_1_nic_in_7 0
switch_nic_in_1_1 1
switch_1_nic_out_1 1
switch_source_nic_in_2 0
switch_nic_out_2_sink 0
switch_nic_out_2_nic_in_0 0
switch_nic_out_2_nic_in_1 0
switch_nic_out_2_nic_in_3 1
switch_nic_out_2_nic_in_4 0
switch_nic_out_2_nic_in_5 0
switch_nic_out_2_nic_in_6 0
switch_nic_out_2_nic_in_7 0
switch_nic_in_2_2 1
switch_2_nic_out_2 1
switch_source_nic_in_3 0
switch_nic_out_3_sink 0
switch_nic_out_3_nic_in_0 0
switch_nic_out_3_nic_in_1 1
switch_nic_out_3_nic_in_2 0
switch_nic_out_3_nic_in_4 0
switch_nic_out_3_nic_in_5 0
switch_nic_out_3_nic_in_6 0
switch_nic_out_3_nic_in_7 0
switch_nic_in_3_3 1
switch_3_nic_out_3 1
switch_source_nic_in_4 0
switch_nic_out_4_sink 0
switch_nic_out_4_nic_in_0 0
switch_nic_out_4_nic_in_1 0
switch_nic_out_4_nic_in_2 0
switch_nic_out_4_nic_in_3 0
switch_nic_out_4_nic_in_5 1
switch_nic_out_4_nic_in_6 0
switch_nic_out_4_nic_in_7 0
switch_nic_in_4_4 1
switch_4_nic_out_4 1
switch_source_nic_in_5 0
switch_nic_out_5_sink 0
switch_nic_out_5_nic_in_0 0
switch_nic_out_5_nic_in_1 0
switch_nic_out_5_nic_in_2 0
switch_nic_out_5_nic_in_3 0
switch_nic_out_5_nic_in_4 0
switch_nic_out_5_nic_in_6 0
switch_nic_out_5_nic_in_7 1
switch_nic_in_5_5 1
switch_5_nic_out_5 1
switch_source_nic_in_6 1
switch_nic_out_6_sink 0
switch_nic_out_6_nic_in_0 0
switch_nic_out_6_nic_in_1 0
switch_nic_out_6_nic_in_2 0
switch_nic_out_6_nic_in_3 0
switch_nic_out_6_nic_in_4 1
switch_nic_out_6_nic_in_5 0
switch_nic_out_6_nic_in_7 0
switch_nic_in_6_6 1
switch_6_nic_out_6 1
switch_source_nic_in_7 0
switch_nic_out_7_sink 0
switch_nic_out_7_nic_in_0 0
switch_nic_out_7_nic_in_1 0
switch_nic_out_7_nic_in_2 1
switch_nic_out_7_nic_in_3 0
switch_nic_out_7_nic_in_4 0
switch_nic_out_7_nic_in_5 0
switch_nic_out_7_nic_in_6 0
switch_nic_in_7_7 1
switch_7_nic_out_7 1
group_tp_active_0 0
group_tp_active_1 0
group_tp_active_2 0
group_tp_active_3 0
group_tp_active_4 0
group_tp_active_5 0
group_tp_active_6 0
group_tp_active_7 0
is_start_zero_0_for_source_nic_in_0 0
is_end_complete_0 1
pair_ok_0_1_for_nic_out_0_nic_in_1 0
pair_ok_0_2_for_nic_out_0_nic_in_2 0
pair_ok_0_3_for_nic_out_0_nic_in_3 0
pair_ok_0_4_for_nic_out_0_nic_in_4 0
pair_ok_0_5_for_nic_out_0_nic_in_5 0
pair_ok_0_6_for_nic_out_0_nic_in_6 0
pair_ok_0_7_for_nic_out_0_nic_in_7 0
is_start_zero_1_for_source_nic_in_1 0
is_end_complete_1 0
pair_ok_1_0_for_nic_out_1_nic_in_0 1
pair_ok_1_2_for_nic_out_1_nic_in_2 0
pair_ok_1_3_for_nic_out_1_nic_in_3 0
pair_ok_1_4_for_nic_out_1_nic_in_4 0
pair_ok_1_5_for_nic_out_1_nic_in_5 0
pair_ok_1_6_for_nic_out_1_nic_in_6 0
pair_ok_1_7_for_nic_out_1_nic_in_7 0
is_start_zero_2_for_source_nic_in_2 0
is_end_complete_2 0
pair_ok_2_0_for_nic_out_2_nic_in_0 0
pair_ok_2_1_for_nic_out_2_nic_in_1 0
pair_ok_2_3_for_nic_out_2_nic_in_3 1
pair_ok_2_4_for_nic_out_2_nic_in_4 0
pair_ok_2_5_for_nic_out_2_nic_in_5 0
pair_ok_2_6_for_nic_out_2_nic_in_6 0
pair_ok_2_7_for_nic_out_2_nic_in_7 0
is_start_zero_3_for_source_nic_in_3 0
is_end_complete_3 0
pair_ok_3_0_for_nic_out_3_nic_in_0 0
pair_ok_3_1_for_nic_out_3_nic_in_1 1
pair_ok_3_2_for_nic_out_3_nic_in_2 0
pair_ok_3_4_for_nic_out_3_nic_in_4 0
pair_ok_3_5_for_nic_out_3_nic_in_5 0
pair_ok_3_6_for_nic_out_3_nic_in_6 0
pair_ok_3_7_for_nic_out_3_nic_in_7 0
is_start_zero_4_for_source_nic_in_4 0
is_end_complete_4 0
pair_ok_4_0_for_nic_out_4_nic_in_0 0
pair_ok_4_1_for_nic_out_4_nic_in_1 0
pair_ok_4_2_for_nic_out_4_nic_in_2 0
pair_ok_4_3_for_nic_out_4_nic_in_3 0
pair_ok_4_5_for_nic_out_4_nic_in_5 1
pair_ok_4_6_for_nic_out_4_nic_in_6 0
pair_ok_4_7_for_nic_out_4_nic_in_7 0
is_start_zero_5_for_source_nic_in_5 0
is_end_complete_5 0
pair_ok_5_0_for_nic_out_5_nic_in_0 0
pair_ok_5_1_for_nic_out_5_nic_in_1 0
pair_ok_5_2_for_nic_out_5_nic_in_2 0
pair_ok_5_3_for_nic_out_5_nic_in_3 0
pair_ok_5_4_for_nic_out_5_nic_in_4 0
pair_ok_5_6_for_nic_out_5_nic_in_6 0
pair_ok_5_7_for_nic_out_5_nic_in_7 1
is_start_zero_6_for_source_nic_in_6 1
is_end_complete_6 0
pair_ok_6_0_for_nic_out_6_nic_in_0 0
pair_ok_6_1_for_nic_out_6_nic_in_1 0
pair_ok_6_2_for_nic_out_6_nic_in_2 0
pair_ok_6_3_for_nic_out_6_nic_in_3 0
pair_ok_6_4_for_nic_out_6_nic_in_4 1
pair_ok_6_5_for_nic_out_6_nic_in_5 0
pair_ok_6_7_for_nic_out_6_nic_in_7 0
is_start_zero_7_for_source_nic_in_7 0
is_end_complete_7 0
pair_ok_7_0_for_nic_out_7_nic_in_0 0
pair_ok_7_1_for_nic_out_7_nic_in_1 0
pair_ok_7_2_for_nic_out_7_nic_in_2 1
pair_ok_7_3_for_nic_out_7_nic_in_3 0
pair_ok_7_4_for_nic_out_7_nic_in_4 0
pair_ok_7_5_for_nic_out_7_nic_in_5 0
pair_ok_7_6_for_nic_out_7_nic_in_6 0
